20
5
89719
0
0
27 14 26 12 13
1
0
53 28 67 60 54
2
0
77 78 65 83 64
3
0
141 255 185 188 191
4
0
16 24 20 18 19
5
0
4 11 5 8 6
6
0
28 23 23 23 24
7
0
30 36 60 57 32
8
0
40 34 51 41 37
9
0
42 48 36 53 57
10
0
64 87 73 82 55
11
0
39 28 35 28 51
12
0
23 37 16 37 38
13
0
152 108 169 118 146
14
0
61 52 58 47 51
15
0
84 56 75 65 62
16
0
2 4 3 2 3
17
0
7 10 17 7 4
18
0
89 118 122 100 100
19
0
173 163 153 149 165
